
Gurobi 11.0.3 (win64) logging started Thu Sep 19 14:21:49 2024

Set parameter LogFile to value "C:\Users\ealvarezq\Desktop\B.Operation_cost\IEEE118_mod1_ByStages_nc140/openStarNet_IEEE118_mod1_ByStages_nc140.log"
Set parameter Method to value 2
Set parameter MIPFocus to value 1
Set parameter Presolve to value 2
Set parameter RINS to value 100
Set parameter MIPGap to value 0.01
Set parameter Threads to value 24
Set parameter TimeLimit to value 259200
Set parameter IterationLimit to value 760000000
Gurobi Optimizer version 11.0.3 build v11.0.3rc0 (win64 - Windows Server 2019.0 (17763.2))

CPU model: AMD Ryzen Threadripper PRO 3955WX 16-Cores, instruction set [SSE2|AVX|AVX2]
Thread count: 16 physical cores, 32 logical processors, using up to 24 threads

Optimize a model with 198943 rows, 146059 columns and 510514 nonzeros
Model fingerprint: 0xcbe41780
Variable types: 146025 continuous, 34 integer (34 binary)
Coefficient statistics:
  Matrix range     [3e-04, 9e+03]
  Objective range  [1e+00, 1e+00]
  Bounds range     [1e-04, 3e+00]
  RHS range        [2e-04, 3e+00]
Presolve removed 134492 rows and 66825 columns
Presolve time: 1.76s
Presolved: 64451 rows, 79234 columns, 235602 nonzeros
Variable types: 79200 continuous, 34 integer (34 binary)
Root relaxation presolved: 64451 rows, 79234 columns, 235602 nonzeros

Root barrier log...

Ordering time: 0.06s

Barrier statistics:
 Dense cols : 34
 AA' NZ     : 2.916e+05
 Factor NZ  : 1.155e+06 (roughly 70 MB of memory)
 Factor Ops : 2.546e+07 (less than 1 second per iteration)
 Threads    : 23

                  Objective                Residual
Iter       Primal          Dual         Primal    Dual     Compl     Time
   0   8.71475873e+06 -1.42645213e+09  1.53e+01 1.22e+03  3.28e+04     3s
   1   2.10202676e+06 -5.43078712e+08  3.37e+00 2.66e-08  6.76e+03     3s
   2   5.88798752e+05 -1.72357070e+08  6.54e-01 2.84e-08  1.38e+03     3s
   3   3.24104993e+05 -4.62063896e+07  1.46e-01 1.26e-08  2.98e+02     3s
   4   2.27868713e+05 -5.89884007e+06  1.19e-02 2.04e-09  3.33e+01     3s
   5   1.75934446e+05 -1.60844880e+06  5.01e-03 5.13e-10  9.52e+00     3s
   6   1.13322237e+05 -5.40959144e+05  2.58e-03 1.56e-10  3.47e+00     3s
   7   6.09277780e+04 -1.73867057e+05  1.20e-03 4.58e-11  1.24e+00     3s
   8   2.06713810e+04 -5.36930021e+04  3.13e-04 1.30e-11  3.91e-01     3s
   9   1.24308666e+04 -2.25883393e+04  1.62e-04 5.64e-12  1.84e-01     4s
  10   7.54353279e+03 -8.88235030e+03  8.40e-05 8.16e-12  8.64e-02     4s
  11   5.68541980e+03 -4.21950609e+03  5.72e-05 4.07e-12  5.21e-02     4s
  12   4.57223354e+03 -8.89188182e+02  4.40e-05 9.11e-12  2.87e-02     4s
  13   3.25651181e+03  7.75324313e+01  2.65e-05 5.71e-12  1.67e-02     4s
  14   2.49627358e+03  4.24242309e+02  1.71e-05 5.32e-12  1.09e-02     4s
  15   1.97185702e+03  8.12873706e+02  1.07e-05 6.23e-12  6.10e-03     4s
  16   1.63099367e+03  9.17723779e+02  6.54e-06 3.60e-12  3.75e-03     4s
  17   1.49462309e+03  9.89811424e+02  4.65e-06 3.93e-12  2.66e-03     4s
  18   1.41943256e+03  1.03324139e+03  3.63e-06 4.36e-12  2.03e-03     4s
  19   1.31027416e+03  1.06959767e+03  2.14e-06 4.83e-12  1.27e-03     4s
  20   1.26474637e+03  1.08721560e+03  1.54e-06 8.04e-12  9.34e-04     4s
  21   1.24710141e+03  1.10738228e+03  1.31e-06 5.53e-12  7.35e-04     4s
  22   1.19535752e+03  1.12317370e+03  6.78e-07 3.80e-12  3.80e-04     4s
  23   1.17888129e+03  1.13017549e+03  4.68e-07 7.66e-12  2.56e-04     4s
  24   1.16776204e+03  1.13477491e+03  3.10e-07 4.33e-12  1.74e-04     4s
  25   1.16101549e+03  1.13754918e+03  2.18e-07 7.38e-12  1.23e-04     4s
  26   1.15687566e+03  1.13882396e+03  1.61e-07 5.80e-12  9.50e-05     4s
  27   1.15407761e+03  1.14046385e+03  1.23e-07 5.60e-12  7.16e-05     4s
  28   1.15063225e+03  1.14141680e+03  7.93e-08 2.83e-12  4.85e-05     4s
  29   1.14756182e+03  1.14360012e+03  3.75e-08 2.77e-12  2.08e-05     4s
  30   1.14636006e+03  1.14414926e+03  2.12e-08 5.01e-12  1.16e-05     4s
  31   1.14595126e+03  1.14435583e+03  1.58e-08 3.34e-12  8.39e-06     4s
  32   1.14567378e+03  1.14449873e+03  1.21e-08 3.02e-12  6.18e-06     4s
  33   1.14527486e+03  1.14457300e+03  6.84e-09 3.18e-12  3.69e-06     4s
  34   1.14500753e+03  1.14464879e+03  6.00e-09 2.34e-12  1.89e-06     4s
  35   1.14485558e+03  1.14468128e+03  3.80e-09 1.98e-12  9.17e-07     4s
  36   1.14478449e+03  1.14470983e+03  4.93e-09 4.87e-12  3.93e-07     4s
  37   1.14474487e+03  1.14472688e+03  7.26e-10 4.63e-12  9.46e-08     4s
  38   1.14474418e+03  1.14473258e+03  3.95e-10 3.37e-12  6.10e-08     5s
  39   1.14474355e+03  1.14473326e+03  4.87e-09 4.03e-12  5.41e-08     5s
  40   1.14474312e+03  1.14474198e+03  1.91e-09 4.81e-12  5.97e-09     5s
  41   1.14474286e+03  1.14474244e+03  1.46e-09 4.25e-12  2.17e-09     5s
  42   1.14474275e+03  1.14474248e+03  4.74e-09 3.32e-12  1.37e-09     5s
  43   1.14474274e+03  1.14474249e+03  4.01e-09 6.12e-12  1.32e-09     5s
  44   1.14474274e+03  1.14474250e+03  3.88e-09 4.42e-12  1.24e-09     5s
  45   1.14474273e+03  1.14474261e+03  3.67e-09 6.08e-12  6.39e-10     5s
  46   1.14474271e+03  1.14474264e+03  2.15e-09 2.82e-12  3.90e-10     5s
  47   1.14474269e+03  1.14474268e+03  1.21e-09 2.61e-12  3.32e-11     5s

Barrier solved model in 47 iterations and 4.98 seconds (3.16 work units)
Optimal objective 1.14474269e+03


Root crossover log...

   13814 DPushes remaining with DInf 2.3685219e-05                 5s
       0 DPushes remaining with DInf 0.0000000e+00                 6s

    1335 PPushes remaining with PInf 0.0000000e+00                 6s
       0 PPushes remaining with PInf 0.0000000e+00                 6s

  Push phase complete: Pinf 0.0000000e+00, Dinf 1.4588941e-05      6s


Root simplex log...

Iteration    Objective       Primal Inf.    Dual Inf.      Time
    5513    1.1447427e+03   0.000000e+00   1.458892e-05      6s
    5514    1.1447427e+03   0.000000e+00   0.000000e+00      6s
    5514    1.1447427e+03   0.000000e+00   0.000000e+00      6s

Root relaxation: objective 1.144743e+03, 5514 iterations, 4.05 seconds (2.48 work units)

    Nodes    |    Current Node    |     Objective Bounds      |     Work
 Expl Unexpl |  Obj  Depth IntInf | Incumbent    BestBd   Gap | It/Node Time

     0     0 1144.74268    0   23          - 1144.74268      -     -    7s
H    0     0                    7935.1282242 1144.74268  85.6%     -   15s
H    0     0                    3334.6305773 1144.74268  65.7%     -   21s
     0     0 1165.36087    0   23 3334.63058 1165.36087  65.1%     -   35s
H    0     0                    1383.6709342 1165.36087  15.8%     -   42s
     0     0 1165.73915    0   23 1383.67093 1165.73915  15.8%     -   43s
     0     0 1165.73915    0   23 1383.67093 1165.73915  15.8%     -   44s
     0     0 1168.37171    0   23 1383.67093 1168.37171  15.6%     -   48s
     0     0 1168.47555    0   23 1383.67093 1168.47555  15.6%     -   50s
     0     0 1168.48199    0   23 1383.67093 1168.48199  15.6%     -   51s
     0     0 1168.48208    0   23 1383.67093 1168.48208  15.6%     -   51s
     0     0 1170.43418    0   22 1383.67093 1170.43418  15.4%     -   53s
     0     0 1170.45795    0   22 1383.67093 1170.45795  15.4%     -   55s
     0     0 1170.45804    0   22 1383.67093 1170.45804  15.4%     -   55s
     0     0 1170.94969    0   22 1383.67093 1170.94969  15.4%     -   57s
     0     0 1170.95978    0   22 1383.67093 1170.95978  15.4%     -   58s
     0     0 1170.96006    0   22 1383.67093 1170.96006  15.4%     -   58s
     0     0 1171.06774    0   22 1383.67093 1171.06774  15.4%     -   62s
H    0     0                    1308.0443289 1171.06774  10.5%     -  902s
     0     2 1171.06774    0   22 1308.04433 1171.06774  10.5%     -  905s
     1     4 1202.79570    1   22 1308.04433 1171.15269  10.5%  5000  912s
     3     8 1225.32881    2   21 1308.04433 1191.67565  8.90%  3339  923s
     7    14 1231.61289    3   19 1308.04433 1199.22435  8.32%  2973  933s
    15    20     cutoff    4      1308.04433 1206.46759  7.77%  2799  945s
    29    38 1218.93609    5   18 1308.04433 1212.76486  7.28%  2886  959s
    49    54 1298.96489    6   17 1308.04433 1219.30131  6.78%  2703  979s
    73    60     cutoff    7      1308.04433 1225.16732  6.34%  2849 1004s
    97    72     cutoff    7      1308.04433 1225.16732  6.34%  2811 1045s
   121    87 1293.54263    9   14 1308.04433 1225.16732  6.34%  2763 1081s
   148   100 1307.06774   10   14 1308.04433 1225.16732  6.34%  2613 1097s
   177   100     cutoff   11      1308.04433 1229.01181  6.04%  2411 1150s
   217    94     cutoff   10      1308.04433 1229.91064  5.97%  2321 1167s
   260    90 1259.48019    7   17 1308.04433 1229.91064  5.97%  2114 1189s
   298   108     cutoff    8      1308.04433 1230.43681  5.93%  2136 1489s
H  311   108                    1306.7471458 1230.43681  5.84%  2110 1489s
H  329   108                    1305.5310186 1230.43681  5.75%  2016 1489s
   348   101     cutoff    7      1305.53102 1230.43681  5.75%  1954 1502s
   401   108 1277.63548   12   11 1305.53102 1230.43681  5.75%  1815 1544s
   464   103     cutoff   15      1305.53102 1230.43681  5.75%  1773 1581s
   525   107 1292.57943   14    9 1305.53102 1230.43681  5.75%  1711 1627s
   601   114     cutoff   18      1305.53102 1230.43681  5.75%  1691 1658s
   684   113 1301.29968   17    6 1305.53102 1230.43681  5.75%  1647 1679s
   780   109     cutoff   21      1305.53102 1237.55080  5.21%  1555 1705s
   871   117 1259.41147    8   14 1305.53102 1247.89033  4.42%  1535 1736s
   971   108 1284.85345   11   10 1305.53102 1247.89033  4.42%  1461 1774s
  1074   106 1292.22241   12   10 1305.53102 1247.89033  4.42%  1424 1800s
  1203    78     cutoff   17      1305.53102 1247.89033  4.42%  1365 1845s
  1337    43 1296.37418   11   10 1305.53102 1249.11111  4.32%  1329 1913s
  1426    29 1285.02475   10   13 1305.53102 1264.02124  3.18%  1299 1927s
  1502    11 1301.82610   12   10 1305.53102 1267.48809  2.91%  1278 1940s
  1558    14 1292.77285   11    9 1305.53102 1275.32033  2.31%  1261 1947s
  1585     4 1303.89597   12    8 1305.53102 1288.75142  1.29%  1253 1960s

Cutting planes:
  Gomory: 3
  Implied bound: 326
  MIR: 550
  Flow cover: 4
  Inf proof: 1
  Relax-and-lift: 3

Explored 1623 nodes (2029306 simplex iterations) in 1961.09 seconds (1637.53 work units)
Thread count was 24 (of 32 available processors)

Solution count 6: 1305.53 1306.75 1308.04 ... 7935.13

Optimal solution found (tolerance 1.00e-02)
Best objective 1.305531018560e+03, best bound 1.292737457981e+03, gap 0.9800%

Gurobi 11.0.3 (win64) logging started Thu Sep 19 14:57:19 2024

Set parameter LogFile to value "C:\Users\ealvarezq\Desktop\B.Operation_cost\IEEE118_mod1_ByStages_nc140/openStarNet_IEEE118_mod1_ByStages_nc140.log"
Set parameter Method to value 2
Set parameter MIPFocus to value 1
Set parameter Presolve to value 2
Set parameter RINS to value 100
Set parameter MIPGap to value 0.01
Set parameter Threads to value 24
Set parameter TimeLimit to value 259200
Set parameter IterationLimit to value 760000000
Gurobi Optimizer version 11.0.3 build v11.0.3rc0 (win64 - Windows Server 2019.0 (17763.2))

CPU model: AMD Ryzen Threadripper PRO 3955WX 16-Cores, instruction set [SSE2|AVX|AVX2]
Thread count: 16 physical cores, 32 logical processors, using up to 24 threads

Optimize a model with 198943 rows, 146025 columns and 491440 nonzeros
Model fingerprint: 0xd714cf81
Coefficient statistics:
  Matrix range     [3e-04, 9e+03]
  Objective range  [1e+00, 1e+00]
  Bounds range     [1e-04, 3e+00]
  RHS range        [2e-04, 3e+02]
Presolve removed 147951 rows and 63066 columns
Presolve time: 0.36s
Presolved: 50992 rows, 83115 columns, 199666 nonzeros

Ordering time: 0.02s

Barrier statistics:
 AA' NZ     : 1.697e+05
 Factor NZ  : 6.783e+05 (roughly 60 MB of memory)
 Factor Ops : 9.940e+06 (less than 1 second per iteration)
 Threads    : 24

                  Objective                Residual
Iter       Primal          Dual         Primal    Dual     Compl     Time
   0   1.59710479e+07 -6.77088477e+08  1.02e+02 1.10e+02  1.54e+04     0s
   1   1.86248750e+06 -1.94813642e+08  1.05e+01 1.36e-12  1.98e+03     1s
   2   4.54225441e+05 -3.80078355e+07  1.66e+00 1.36e-12  3.04e+02     1s
   3   2.04672922e+05 -5.07886412e+06  5.68e-02 1.14e-12  3.05e+01     1s
   4   1.10592853e+05 -8.42680414e+05  2.98e-03 1.02e-12  5.27e+00     1s
   5   6.35421617e+04 -2.66290358e+05  1.21e-03 4.26e-13  1.82e+00     1s
   6   2.84691271e+04 -8.86048626e+04  4.14e-04 3.30e-13  6.45e-01     1s
   7   1.43368334e+04 -3.33141567e+04  1.62e-04 3.68e-13  2.63e-01     1s
   8   8.45116422e+03 -1.20970911e+04  7.93e-05 2.56e-13  1.13e-01     1s
   9   5.60129956e+03 -4.63567497e+03  4.48e-05 2.85e-13  5.64e-02     1s
  10   3.66168705e+03 -1.37770621e+03  2.34e-05 2.33e-13  2.78e-02     1s
  11   2.82991773e+03  3.86137272e+01  1.47e-05 3.29e-13  1.54e-02     1s
  12   2.25416242e+03  3.39327286e+02  8.84e-06 2.95e-13  1.05e-02     1s
  13   1.96136391e+03  7.15887668e+02  5.97e-06 3.19e-13  6.86e-03     1s
  14   1.73141065e+03  9.50148886e+02  3.79e-06 3.50e-13  4.30e-03     1s
  15   1.58009539e+03  1.09293720e+03  2.39e-06 1.88e-13  2.68e-03     1s
  16   1.43707235e+03  1.18949874e+03  1.15e-06 2.59e-13  1.36e-03     1s
  17   1.39655200e+03  1.23121637e+03  7.87e-07 2.60e-13  9.11e-04     1s
  18   1.35762586e+03  1.27439567e+03  4.37e-07 2.61e-13  4.58e-04     1s
  19   1.33966167e+03  1.28963833e+03  2.85e-07 3.58e-13  2.76e-04     1s
  20   1.32312582e+03  1.29641024e+03  1.45e-07 2.12e-13  1.47e-04     1s
  21   1.31375618e+03  1.30265144e+03  6.63e-08 3.71e-13  6.12e-05     1s
  22   1.31000727e+03  1.30436650e+03  3.51e-08 4.11e-13  3.11e-05     1s
  23   1.30724743e+03  1.30500310e+03  1.33e-08 5.64e-13  1.24e-05     1s
  24   1.30612834e+03  1.30536695e+03  4.62e-09 2.85e-13  4.19e-06     2s
  25   1.30571121e+03  1.30547601e+03  1.36e-09 3.24e-13  1.30e-06     2s
  26   1.30554486e+03  1.30551012e+03  3.57e-10 2.27e-13  1.91e-07     2s
  27   1.30553181e+03  1.30553024e+03  5.33e-10 4.07e-13  8.66e-09     2s
  28   1.30553108e+03  1.30553085e+03  2.20e-10 4.98e-13  1.27e-09     2s
  29   1.30553103e+03  1.30553102e+03  1.59e-10 3.25e-13  4.93e-11     2s

Barrier solved model in 29 iterations and 1.65 seconds (0.98 work units)
Optimal objective 1.30553103e+03

Crossover log...

   14585 DPushes remaining with DInf 0.0000000e+00                 2s
       0 DPushes remaining with DInf 0.0000000e+00                 2s

     524 PPushes remaining with PInf 0.0000000e+00                 2s
       0 PPushes remaining with PInf 0.0000000e+00                 2s

  Push phase complete: Pinf 0.0000000e+00, Dinf 3.6960646e-12      2s

Iteration    Objective       Primal Inf.    Dual Inf.      Time
    4922    1.3055310e+03   0.000000e+00   0.000000e+00      2s

Solved in 4922 iterations and 2.05 seconds (1.20 work units)
Optimal objective  1.305531019e+03

Gurobi 11.0.0 (linux64) logging started Sat Sep 21 21:32:34 2024

Set parameter LogFile to value "/lustre1/scratch/348/vsc34888/JointResearch/05.Models/06.Benchmarking/B.Operation_cost/IEEE118_mod1_ByStages_nc140/openStarNet_IEEE118_mod1_ByStages_nc140.log"
Set parameter Method to value 2
Set parameter MIPFocus to value 1
Set parameter Presolve to value 2
Set parameter RINS to value 100
Set parameter MIPGap to value 0.01
Set parameter Threads to value 36
Set parameter TimeLimit to value 259200
Set parameter IterationLimit to value 760000000
Gurobi Optimizer version 11.0.0 build v11.0.0rc2 (linux64 - "Rocky Linux 8.9 (Green Obsidian)")

CPU model: Intel(R) Xeon(R) Gold 6240 CPU @ 2.60GHz, instruction set [SSE2|AVX|AVX2|AVX512]
Thread count: 36 physical cores, 36 logical processors, using up to 36 threads

Optimize a model with 198943 rows, 146025 columns and 491440 nonzeros
Model fingerprint: 0x70f2ba5b
Coefficient statistics:
  Matrix range     [3e-04, 9e+03]
  Objective range  [1e+00, 1e+00]
  Bounds range     [1e-04, 3e+00]
  RHS range        [2e-04, 3e+00]
Presolve removed 150836 rows and 68200 columns
Presolve time: 0.29s
Presolved: 48107 rows, 80045 columns, 190463 nonzeros

Ordering time: 0.01s

Barrier statistics:
 AA' NZ     : 1.657e+05
 Factor NZ  : 6.222e+05 (roughly 60 MB of memory)
 Factor Ops : 8.862e+06 (less than 1 second per iteration)
 Threads    : 36

                  Objective                Residual
Iter       Primal          Dual         Primal    Dual     Compl     Time
   0   1.69697154e+07 -3.83387207e+08  1.15e+02 8.62e+01  1.15e+04     0s
   1   1.65052286e+06 -1.37671061e+08  9.65e+00 1.18e-12  1.41e+03     0s
   2   4.71940925e+05 -2.85759195e+07  1.69e+00 1.05e-12  2.36e+02     0s
   3   2.14761200e+05 -4.92125127e+06  8.00e-02 8.24e-13  3.09e+01     0s
   4   1.32560039e+05 -8.55210487e+05  9.23e-03 5.96e-13  5.68e+00     0s
   5   8.30139464e+04 -3.53363228e+05  4.31e-03 2.84e-13  2.50e+00     0s
   6   5.47518396e+04 -1.29961821e+05  2.26e-03 2.27e-13  1.06e+00     0s
   7   4.02200590e+04 -5.40438777e+04  1.34e-03 2.27e-13  5.38e-01     1s
   8   2.92275565e+04 -2.15015011e+04  7.26e-04 2.27e-13  2.89e-01     1s
   9   2.41898079e+04  1.88191068e+03  4.64e-04 3.41e-13  1.27e-01     1s
  10   2.08317604e+04  7.12981401e+03  2.98e-04 2.27e-13  7.81e-02     1s
  11   1.85554135e+04  1.04999890e+04  1.90e-04 2.27e-13  4.59e-02     1s
  12   1.62883890e+04  1.22053101e+04  8.84e-05 2.27e-13  2.33e-02     1s
  13   1.54199748e+04  1.30555578e+04  5.03e-05 2.27e-13  1.35e-02     1s
  14   1.50389661e+04  1.34978251e+04  3.42e-05 2.27e-13  8.79e-03     1s
  15   1.47247986e+04  1.37702364e+04  2.13e-05 2.27e-13  5.44e-03     1s
  16   1.45307389e+04  1.39218137e+04  1.35e-05 4.55e-13  3.47e-03     1s
  17   1.43829591e+04  1.39994464e+04  7.76e-06 2.27e-13  2.19e-03     1s
  18   1.43109281e+04  1.40773842e+04  5.00e-06 2.27e-13  1.33e-03     1s
  19   1.42543175e+04  1.41047793e+04  2.90e-06 2.27e-13  8.53e-04     1s
  20   1.42159006e+04  1.41357499e+04  1.47e-06 2.27e-13  4.57e-04     1s
  21   1.41980227e+04  1.41470614e+04  8.04e-07 2.27e-13  2.91e-04     1s
  22   1.41826406e+04  1.41618354e+04  2.69e-07 2.27e-13  1.19e-04     1s
  23   1.41777945e+04  1.41674549e+04  1.04e-07 2.27e-13  5.90e-05     1s
  24   1.41752413e+04  1.41691832e+04  2.11e-08 2.27e-13  3.45e-05     1s
  25   1.41751392e+04  1.41729999e+04  1.87e-08 2.27e-13  1.22e-05     1s
  26   1.41745076e+04  1.41736172e+04  3.34e-09 2.27e-13  5.08e-06     1s
  27   1.41743905e+04  1.41742229e+04  6.88e-10 2.27e-13  9.55e-07     1s
  28   1.41743601e+04  1.41743244e+04  1.72e-09 2.27e-13  2.04e-07     1s
  29   1.41743564e+04  1.41743541e+04  8.16e-10 2.27e-13  1.26e-08     1s
  30   1.41743561e+04  1.41743559e+04  2.07e-10 2.27e-13  1.28e-09     1s
  31   1.41743561e+04  1.41743561e+04  6.09e-10 2.27e-13  2.33e-12     1s

Barrier solved model in 31 iterations and 1.07 seconds (0.99 work units)
Optimal objective 1.41743561e+04

Crossover log...

   14039 DPushes remaining with DInf 0.0000000e+00                 1s
       0 DPushes remaining with DInf 0.0000000e+00                 1s

     990 PPushes remaining with PInf 0.0000000e+00                 1s
       0 PPushes remaining with PInf 0.0000000e+00                 1s

  Push phase complete: Pinf 0.0000000e+00, Dinf 3.6449702e-11      1s

Extra simplex iterations after uncrush: 1
Iteration    Objective       Primal Inf.    Dual Inf.      Time
    5071    1.4174356e+04   0.000000e+00   0.000000e+00      2s

Solved in 5071 iterations and 1.63 seconds (1.25 work units)
Optimal objective  1.417435607e+04

Gurobi 11.0.0 (linux64) logging started Sat Sep 21 21:33:13 2024

Set parameter LogFile to value "/lustre1/scratch/348/vsc34888/JointResearch/05.Models/06.Benchmarking/B.Operation_cost/IEEE118_mod1_ByStages_nc140/openStarNet_IEEE118_mod1_ByStages_nc140.log"
Set parameter Method to value 2
Set parameter MIPFocus to value 1
Set parameter Presolve to value 2
Set parameter RINS to value 100
Set parameter MIPGap to value 0.01
Set parameter Threads to value 36
Set parameter TimeLimit to value 259200
Set parameter IterationLimit to value 760000000
Gurobi Optimizer version 11.0.0 build v11.0.0rc2 (linux64 - "Rocky Linux 8.9 (Green Obsidian)")

CPU model: Intel(R) Xeon(R) Gold 6240 CPU @ 2.60GHz, instruction set [SSE2|AVX|AVX2|AVX512]
Thread count: 36 physical cores, 36 logical processors, using up to 36 threads

Optimize a model with 198943 rows, 146025 columns and 491440 nonzeros
Model fingerprint: 0x70f2ba5b
Coefficient statistics:
  Matrix range     [3e-04, 9e+03]
  Objective range  [1e+00, 1e+00]
  Bounds range     [1e-04, 3e+00]
  RHS range        [2e-04, 3e+00]
Presolve removed 150836 rows and 68200 columns
Presolve time: 0.29s
Presolved: 48107 rows, 80045 columns, 190463 nonzeros

Ordering time: 0.01s

Barrier statistics:
 AA' NZ     : 1.657e+05
 Factor NZ  : 6.222e+05 (roughly 60 MB of memory)
 Factor Ops : 8.862e+06 (less than 1 second per iteration)
 Threads    : 36

                  Objective                Residual
Iter       Primal          Dual         Primal    Dual     Compl     Time
   0   1.69697154e+07 -3.83387207e+08  1.15e+02 8.62e+01  1.15e+04     0s
   1   1.65052286e+06 -1.37671061e+08  9.65e+00 1.18e-12  1.41e+03     0s
   2   4.71940925e+05 -2.85759195e+07  1.69e+00 1.05e-12  2.36e+02     0s
   3   2.14761200e+05 -4.92125127e+06  8.00e-02 8.24e-13  3.09e+01     0s
   4   1.32560039e+05 -8.55210487e+05  9.23e-03 5.96e-13  5.68e+00     0s
   5   8.30139464e+04 -3.53363228e+05  4.31e-03 2.84e-13  2.50e+00     0s
   6   5.47518396e+04 -1.29961821e+05  2.26e-03 2.27e-13  1.06e+00     0s
   7   4.02200590e+04 -5.40438777e+04  1.34e-03 2.27e-13  5.38e-01     1s
   8   2.92275565e+04 -2.15015011e+04  7.26e-04 2.27e-13  2.89e-01     1s
   9   2.41898079e+04  1.88191068e+03  4.64e-04 3.41e-13  1.27e-01     1s
  10   2.08317604e+04  7.12981401e+03  2.98e-04 2.27e-13  7.81e-02     1s
  11   1.85554135e+04  1.04999890e+04  1.90e-04 2.27e-13  4.59e-02     1s
  12   1.62883890e+04  1.22053101e+04  8.84e-05 2.27e-13  2.33e-02     1s
  13   1.54199748e+04  1.30555578e+04  5.03e-05 2.27e-13  1.35e-02     1s
  14   1.50389661e+04  1.34978251e+04  3.42e-05 2.27e-13  8.79e-03     1s
  15   1.47247986e+04  1.37702364e+04  2.13e-05 2.27e-13  5.44e-03     1s
  16   1.45307389e+04  1.39218137e+04  1.35e-05 4.55e-13  3.47e-03     1s
  17   1.43829591e+04  1.39994464e+04  7.76e-06 2.27e-13  2.19e-03     1s
  18   1.43109281e+04  1.40773842e+04  5.00e-06 2.27e-13  1.33e-03     1s
  19   1.42543175e+04  1.41047793e+04  2.90e-06 2.27e-13  8.53e-04     1s
  20   1.42159006e+04  1.41357499e+04  1.47e-06 2.27e-13  4.57e-04     1s
  21   1.41980227e+04  1.41470614e+04  8.04e-07 2.27e-13  2.91e-04     1s
  22   1.41826406e+04  1.41618354e+04  2.69e-07 2.27e-13  1.19e-04     1s
  23   1.41777945e+04  1.41674549e+04  1.04e-07 2.27e-13  5.90e-05     1s
  24   1.41752413e+04  1.41691832e+04  2.11e-08 2.27e-13  3.45e-05     1s
  25   1.41751392e+04  1.41729999e+04  1.87e-08 2.27e-13  1.22e-05     1s
  26   1.41745076e+04  1.41736172e+04  3.34e-09 2.27e-13  5.08e-06     1s
  27   1.41743905e+04  1.41742229e+04  6.88e-10 2.27e-13  9.55e-07     1s
  28   1.41743601e+04  1.41743244e+04  1.72e-09 2.27e-13  2.04e-07     1s
  29   1.41743564e+04  1.41743541e+04  8.16e-10 2.27e-13  1.26e-08     1s
  30   1.41743561e+04  1.41743559e+04  2.07e-10 2.27e-13  1.28e-09     1s
  31   1.41743561e+04  1.41743561e+04  6.09e-10 2.27e-13  2.33e-12     1s

Barrier solved model in 31 iterations and 1.00 seconds (0.99 work units)
Optimal objective 1.41743561e+04

Crossover log...

   14039 DPushes remaining with DInf 0.0000000e+00                 1s
       0 DPushes remaining with DInf 0.0000000e+00                 1s

     990 PPushes remaining with PInf 0.0000000e+00                 1s
       0 PPushes remaining with PInf 0.0000000e+00                 1s

  Push phase complete: Pinf 0.0000000e+00, Dinf 3.6449702e-11      1s

Extra simplex iterations after uncrush: 1
Iteration    Objective       Primal Inf.    Dual Inf.      Time
    5071    1.4174356e+04   0.000000e+00   0.000000e+00      1s

Solved in 5071 iterations and 1.47 seconds (1.25 work units)
Optimal objective  1.417435607e+04

Gurobi 11.0.0 (linux64) logging started Sun Sep 22 11:19:37 2024

Set parameter LogFile to value "/lustre1/scratch/348/vsc34888/JointResearch/05.Models/06.Benchmarking/B.Operation_cost/IEEE118_mod1_ByStages_nc140/openStarNet_IEEE118_mod1_ByStages_nc140.log"
Set parameter Method to value 2
Set parameter MIPFocus to value 1
Set parameter Presolve to value 2
Set parameter RINS to value 100
Set parameter MIPGap to value 0.01
Set parameter Threads to value 36
Set parameter TimeLimit to value 259200
Set parameter IterationLimit to value 760000000
Gurobi Optimizer version 11.0.0 build v11.0.0rc2 (linux64 - "Rocky Linux 8.9 (Green Obsidian)")

CPU model: Intel(R) Xeon(R) Gold 6240 CPU @ 2.60GHz, instruction set [SSE2|AVX|AVX2|AVX512]
Thread count: 36 physical cores, 36 logical processors, using up to 36 threads

Optimize a model with 198943 rows, 146025 columns and 491440 nonzeros
Model fingerprint: 0x233f2a44
Coefficient statistics:
  Matrix range     [3e-04, 9e+03]
  Objective range  [1e+00, 1e+00]
  Bounds range     [1e-04, 3e+00]
  RHS range        [2e-04, 3e+00]
Presolve removed 151033 rows and 68397 columns
Presolve time: 0.29s
Presolved: 47910 rows, 79848 columns, 189856 nonzeros

Ordering time: 0.01s

Barrier statistics:
 AA' NZ     : 1.648e+05
 Factor NZ  : 6.183e+05 (roughly 60 MB of memory)
 Factor Ops : 8.795e+06 (less than 1 second per iteration)
 Threads    : 36

                  Objective                Residual
Iter       Primal          Dual         Primal    Dual     Compl     Time
   0   2.03181523e+07 -4.10630018e+08  1.18e+02 7.22e+01  1.51e+04     0s
   1   1.88163511e+06 -1.68780957e+08  9.53e+00 1.08e-12  1.81e+03     0s
   2   5.06210809e+05 -3.88977211e+07  1.66e+00 1.11e-12  3.22e+02     0s
   3   2.22044146e+05 -5.29225351e+06  5.07e-02 8.31e-13  3.28e+01     0s
   4   1.35631992e+05 -8.47463609e+05  5.32e-03 5.68e-13  5.65e+00     0s
   5   8.38140385e+04 -2.82799932e+05  2.43e-03 4.55e-13  2.10e+00     1s
   6   5.23162932e+04 -1.18711148e+05  1.19e-03 2.27e-13  9.78e-01     1s
   7   3.67462183e+04 -4.92831117e+04  6.59e-04 2.27e-13  4.92e-01     1s
   8   2.73927790e+04 -2.07227395e+04  3.63e-04 2.27e-13  2.75e-01     1s
   9   2.23517064e+04 -3.24388697e+03  2.09e-04 2.27e-13  1.46e-01     1s
  10   1.97307635e+04  5.18322633e+03  1.35e-04 2.27e-13  8.31e-02     1s
  11   1.73574961e+04  9.98158886e+03  7.26e-05 2.27e-13  4.22e-02     1s
  12   1.58535510e+04  1.19305987e+04  3.52e-05 2.27e-13  2.24e-02     1s
  13   1.51423754e+04  1.32291942e+04  1.97e-05 2.27e-13  1.09e-02     1s
  14   1.47120094e+04  1.36081405e+04  1.05e-05 2.27e-13  6.31e-03     1s
  15   1.45265259e+04  1.38580311e+04  6.75e-06 2.27e-13  3.82e-03     1s
  16   1.43655143e+04  1.39611062e+04  3.57e-06 2.27e-13  2.31e-03     1s
  17   1.42934789e+04  1.40259979e+04  2.18e-06 1.14e-13  1.53e-03     1s
  18   1.42380075e+04  1.40787462e+04  1.12e-06 2.27e-13  9.10e-04     1s
  19   1.42105965e+04  1.41243589e+04  6.17e-07 2.27e-13  4.93e-04     1s
  20   1.41888391e+04  1.41615486e+04  2.27e-07 2.27e-13  1.56e-04     1s
  21   1.41785760e+04  1.41669555e+04  6.07e-08 2.27e-13  6.64e-05     1s
  22   1.41759244e+04  1.41712593e+04  2.05e-08 4.55e-13  2.67e-05     1s
  23   1.41745749e+04  1.41740718e+04  2.21e-09 3.41e-13  2.88e-06     1s
  24   1.41743782e+04  1.41743309e+04  2.93e-10 3.41e-13  2.71e-07     1s
  25   1.41743591e+04  1.41743474e+04  3.22e-09 2.27e-13  6.69e-08     1s
  26   1.41743562e+04  1.41743548e+04  5.65e-09 4.55e-13  8.09e-09     1s
  27   1.41743561e+04  1.41743560e+04  2.25e-09 2.27e-13  4.89e-10     1s

Barrier solved model in 27 iterations and 1.02 seconds (0.90 work units)
Optimal objective 1.41743561e+04

Crossover log...

   14136 DPushes remaining with DInf 0.0000000e+00                 1s
       0 DPushes remaining with DInf 0.0000000e+00                 1s

    1016 PPushes remaining with PInf 0.0000000e+00                 1s
       0 PPushes remaining with PInf 0.0000000e+00                 1s

  Push phase complete: Pinf 0.0000000e+00, Dinf 3.3259446e-11      1s

Extra simplex iterations after uncrush: 1
Iteration    Objective       Primal Inf.    Dual Inf.      Time
    5194    1.4174356e+04   0.000000e+00   0.000000e+00      2s

Solved in 5194 iterations and 1.50 seconds (1.16 work units)
Optimal objective  1.417435607e+04

Gurobi 11.0.0 (linux64) logging started Sun Sep 22 11:20:14 2024

Set parameter LogFile to value "/lustre1/scratch/348/vsc34888/JointResearch/05.Models/06.Benchmarking/B.Operation_cost/IEEE118_mod1_ByStages_nc140/openStarNet_IEEE118_mod1_ByStages_nc140.log"
Set parameter Method to value 2
Set parameter MIPFocus to value 1
Set parameter Presolve to value 2
Set parameter RINS to value 100
Set parameter MIPGap to value 0.01
Set parameter Threads to value 36
Set parameter TimeLimit to value 259200
Set parameter IterationLimit to value 760000000
Gurobi Optimizer version 11.0.0 build v11.0.0rc2 (linux64 - "Rocky Linux 8.9 (Green Obsidian)")

CPU model: Intel(R) Xeon(R) Gold 6240 CPU @ 2.60GHz, instruction set [SSE2|AVX|AVX2|AVX512]
Thread count: 36 physical cores, 36 logical processors, using up to 36 threads

Optimize a model with 198943 rows, 146025 columns and 491440 nonzeros
Model fingerprint: 0x233f2a44
Coefficient statistics:
  Matrix range     [3e-04, 9e+03]
  Objective range  [1e+00, 1e+00]
  Bounds range     [1e-04, 3e+00]
  RHS range        [2e-04, 3e+00]
Presolve removed 151033 rows and 68397 columns
Presolve time: 0.29s
Presolved: 47910 rows, 79848 columns, 189856 nonzeros

Ordering time: 0.01s

Barrier statistics:
 AA' NZ     : 1.648e+05
 Factor NZ  : 6.183e+05 (roughly 60 MB of memory)
 Factor Ops : 8.795e+06 (less than 1 second per iteration)
 Threads    : 36

                  Objective                Residual
Iter       Primal          Dual         Primal    Dual     Compl     Time
   0   2.03181523e+07 -4.10630018e+08  1.18e+02 7.22e+01  1.51e+04     0s
   1   1.88163511e+06 -1.68780957e+08  9.53e+00 1.08e-12  1.81e+03     0s
   2   5.06210809e+05 -3.88977211e+07  1.66e+00 1.11e-12  3.22e+02     0s
   3   2.22044146e+05 -5.29225351e+06  5.07e-02 8.31e-13  3.28e+01     0s
   4   1.35631992e+05 -8.47463609e+05  5.32e-03 5.68e-13  5.65e+00     0s
   5   8.38140385e+04 -2.82799932e+05  2.43e-03 4.55e-13  2.10e+00     0s
   6   5.23162932e+04 -1.18711148e+05  1.19e-03 2.27e-13  9.78e-01     1s
   7   3.67462183e+04 -4.92831117e+04  6.59e-04 2.27e-13  4.92e-01     1s
   8   2.73927790e+04 -2.07227395e+04  3.63e-04 2.27e-13  2.75e-01     1s
   9   2.23517064e+04 -3.24388697e+03  2.09e-04 2.27e-13  1.46e-01     1s
  10   1.97307635e+04  5.18322633e+03  1.35e-04 2.27e-13  8.31e-02     1s
  11   1.73574961e+04  9.98158886e+03  7.26e-05 2.27e-13  4.22e-02     1s
  12   1.58535510e+04  1.19305987e+04  3.52e-05 2.27e-13  2.24e-02     1s
  13   1.51423754e+04  1.32291942e+04  1.97e-05 2.27e-13  1.09e-02     1s
  14   1.47120094e+04  1.36081405e+04  1.05e-05 2.27e-13  6.31e-03     1s
  15   1.45265259e+04  1.38580311e+04  6.75e-06 2.27e-13  3.82e-03     1s
  16   1.43655143e+04  1.39611062e+04  3.57e-06 2.27e-13  2.31e-03     1s
  17   1.42934789e+04  1.40259979e+04  2.18e-06 1.14e-13  1.53e-03     1s
  18   1.42380075e+04  1.40787462e+04  1.12e-06 2.27e-13  9.10e-04     1s
  19   1.42105965e+04  1.41243589e+04  6.17e-07 2.27e-13  4.93e-04     1s
  20   1.41888391e+04  1.41615486e+04  2.27e-07 2.27e-13  1.56e-04     1s
  21   1.41785760e+04  1.41669555e+04  6.07e-08 2.27e-13  6.64e-05     1s
  22   1.41759244e+04  1.41712593e+04  2.05e-08 4.55e-13  2.67e-05     1s
  23   1.41745749e+04  1.41740718e+04  2.21e-09 3.41e-13  2.88e-06     1s
  24   1.41743782e+04  1.41743309e+04  2.93e-10 3.41e-13  2.71e-07     1s
  25   1.41743591e+04  1.41743474e+04  3.22e-09 2.27e-13  6.69e-08     1s
  26   1.41743562e+04  1.41743548e+04  5.65e-09 4.55e-13  8.09e-09     1s
  27   1.41743561e+04  1.41743560e+04  2.25e-09 2.27e-13  4.89e-10     1s

Barrier solved model in 27 iterations and 1.00 seconds (0.90 work units)
Optimal objective 1.41743561e+04

Crossover log...

   14136 DPushes remaining with DInf 0.0000000e+00                 1s
       0 DPushes remaining with DInf 0.0000000e+00                 1s

    1016 PPushes remaining with PInf 0.0000000e+00                 1s
       0 PPushes remaining with PInf 0.0000000e+00                 1s

  Push phase complete: Pinf 0.0000000e+00, Dinf 3.3259446e-11      1s

Extra simplex iterations after uncrush: 1
Iteration    Objective       Primal Inf.    Dual Inf.      Time
    5194    1.4174356e+04   0.000000e+00   0.000000e+00      1s

Solved in 5194 iterations and 1.46 seconds (1.16 work units)
Optimal objective  1.417435607e+04
